NAME : amz1488.159106_70606.tour
COMMENT : Cost = 159106_70606
COMMENT : Found by LKH-AMZ [Keld Helsgaun] Sun May 11 14:54:00 2025
COMMENT : TW viol.: 0 #: 0
TYPE : TOUR
DIMENSION : 122
TOUR_SECTION
48
77
34
28
102
19
35
108
69
110
67
10
64
78
62
45
63
2
8
72
46
26
85
122
49
40
109
9
76
75
112
93
17
118
111
50
7
96
87
22
95
115
116
88
15
1
37
32
80
44
70
89
98
5
81
16
38
29
107
61
60
83
99
53
30
54
42
23
47
36
13
86
12
92
55
65
4
18
31
117
56
119
20
21
71
90
52
106
120
68
24
66
113
79
100
25
43
51
73
57
3
94
82
27
74
11
84
91
114
97
33
105
6
59
103
58
121
39
104
41
14
101
-1
EOF
